/* Objective function */
min: +C1 +C2 +C3 +C4 +C5 +C6 +C7 +C8 +C9 +C10 +C11 +C12 +C13 +C14 +C15 +C16 +C17 +C18 +C19 +C20 +C21 +C22
 +C23 +C24 +C25 +C26 +C27 +C28 +C29 +C30 +C31 +C32 +C33 +C34 +C35 +C36 +C37 +C38 +C39 +C40 +C41 +C42
 +C43 +C44 +C45 +C46 +C47 +C48 +C49 +C50 +C51 +C52 +C53 +C54 +C55 +C56 +C57 +C58 +C59 +C60 +C61 +C62
 +C63 +C64 +C65 +C66 +C67 +C68 +C69 +C70 +C71 +C72 +C73 +C74 +C75 +C76 +C77 +C78;

/* Constraints */
R1: +100 C73 >= 153.75;
R2: +100 C74 >= 153.75;
R3: +100 C75 >= 153.75;
R4: +100 C76 >= 153.75;
R5: +100 C77 >= 153.75;
R6: +100 C78 >= 153.75;
+C1 +C3 -C73 = 0;
+C1 +C8 -C73 = 0;
+C8 +C9 -C12 = 0;
-C3 -C9 +C12 = 0;
+C13 +C15 -C74 = 0;
-C13 +C17 = 0;
+C17 +C24 -C74 = 0;
-C15 +C24 = 0;
+C25 +C27 -C75 = 0;
-C25 +C29 -C32 = 0;
-C29 +C32 +C33 = 0;
+C27 +C33 -C75 = 0;
+C39 -C40 -C46 = 0;
+C40 +C41 -C76 = 0;
+C41 +C48 -C76 = 0;
-C39 +C46 +C48 = 0;
+C51 -C52 = 0;
+C52 +C53 -C77 = 0;
-C53 +C57 = 0;
+C51 +C57 -C77 = 0;
+C61 +C63 -C64 = 0;
-C61 +C64 -C68 = 0;
+C68 +C69 -C78 = 0;
+C63 +C69 -C78 = 0;
+C1 +C4 +C13 +C16 +C25 +C28 +C37 +C40 +C49 +C52 +C61 +C64 <= 80;
+C2 +C7 +C14 +C19 +C26 +C31 +C38 +C43 +C50 +C55 +C62 +C67 <= 0;
+C3 +C10 +C15 +C22 +C27 +C34 +C39 +C46 +C51 +C58 +C63 +C70 <= 80;
+C5 +C8 +C17 +C20 +C29 +C32 +C41 +C44 +C53 +C56 +C65 +C68 <= 80;
+C6 +C11 +C18 +C23 +C30 +C35 +C42 +C47 +C54 +C59 +C66 +C71 <= 0;
+C9 +C12 +C21 +C24 +C33 +C36 +C45 +C48 +C57 +C60 +C69 +C72 <= 80;

/* Integer definitions */
int C1,C2,C3,C4,C5,C6,C7,C8,C9,C10,C11,C12,C13,C14,C15,C16,C17,C18,C19,C20,C21,C22,C23,C24,C25,C26,C27,C28,C29,C30,C31,C32,C33,C34,C35,C36,C37,C38,C39,C40,C41,C42,C43,C44,C45,C46,C47,C48,C49,C50,C51,C52,C53,C54,C55,C56,C57,C58,C59,C60,C61,C62,C63,C64,C65,C66,C67,C68,C69,C70,C71,C72,C73,C74,C75,C76,C77,C78;
